33D32945 STP File, STP Format Version 1.0

SECTION Comment
Name "i640-305-PCST"
Creator "Indaco Biazzo" 
Remark "derived from Incidence graph by Cees Duin"
END

SECTION Graph
Nodes 640
Edges 960
E 1 79 300.000000
E 1 109 294.000000
E 1 291 201.000000
E 1 488 190.000000
E 1 503 202.000000
E 2 270 198.000000
E 2 430 202.000000
E 2 556 196.000000
E 2 558 200.000000
E 2 640 206.000000
E 3 264 192.000000
E 3 391 208.000000
E 4 25 304.000000
E 4 67 301.000000
E 4 243 203.000000
E 5 360 196.000000
E 5 370 200.000000
E 5 423 200.000000
E 5 626 199.000000
E 6 194 202.000000
E 6 605 204.000000
E 7 29 297.000000
E 7 70 294.000000
E 7 181 203.000000
E 7 357 201.000000
E 7 384 201.000000
E 7 508 197.000000
E 8 499 196.000000
E 9 281 199.000000
E 10 118 300.000000
E 10 522 197.000000
E 11 79 308.000000
E 12 247 204.000000
E 12 334 194.000000
E 12 389 203.000000
E 13 32 299.000000
E 13 135 297.000000
E 14 364 205.000000
E 14 404 198.000000
E 15 279 188.000000
E 16 60 301.000000
E 16 77 303.000000
E 16 109 293.000000
E 16 472 199.000000
E 16 564 202.000000
E 16 613 198.000000
E 17 43 293.000000
E 17 79 298.000000
E 17 91 299.000000
E 17 379 200.000000
E 18 363 206.000000
E 18 475 198.000000
E 18 489 203.000000
E 18 634 193.000000
E 19 182 194.000000
E 19 434 202.000000
E 19 495 195.000000
E 19 557 203.000000
E 19 620 201.000000
E 20 329 202.000000
E 20 613 199.000000
E 21 48 295.000000
E 21 143 299.000000
E 21 150 309.000000
E 21 230 205.000000
E 21 302 202.000000
E 21 346 206.000000
E 21 360 195.000000
E 21 423 196.000000
E 21 540 207.000000
E 21 607 199.000000
E 22 622 201.000000
E 23 31 299.000000
E 23 173 202.000000
E 23 198 204.000000
E 23 616 209.000000
E 24 35 300.000000
E 24 238 198.000000
E 24 396 195.000000
E 24 520 192.000000
E 24 543 190.000000
E 24 547 199.000000
E 24 639 197.000000
E 25 32 294.000000
E 25 185 205.000000
E 25 258 211.000000
E 26 395 200.000000
E 27 384 206.000000
E 28 350 194.000000
E 28 380 197.000000
E 28 401 191.000000
E 28 410 205.000000
E 30 202 201.000000
E 30 288 196.000000
E 30 604 200.000000
E 31 121 298.000000
E 31 267 200.000000
E 31 310 204.000000
E 31 618 200.000000
E 31 625 200.000000
E 32 207 200.000000
E 32 263 196.000000
E 32 281 201.000000
E 33 397 197.000000
E 34 242 203.000000
E 35 337 194.000000
E 35 623 190.000000
E 36 516 196.000000
E 36 532 192.000000
E 37 53 299.000000
E 37 187 204.000000
E 38 94 293.000000
E 38 193 197.000000
E 38 261 196.000000
E 38 410 202.000000
E 38 573 200.000000
E 39 122 303.000000
E 39 583 203.000000
E 39 637 204.000000
E 40 78 298.000000
E 40 149 294.000000
E 40 246 204.000000
E 40 421 209.000000
E 41 86 295.000000
E 41 138 302.000000
E 41 173 200.000000
E 41 388 197.000000
E 41 444 204.000000
E 41 637 202.000000
E 42 78 305.000000
E 42 80 300.000000
E 42 635 194.000000
E 43 537 204.000000
E 44 396 197.000000
E 45 58 307.000000
E 45 627 193.000000
E 46 277 200.000000
E 46 611 205.000000
E 47 217 196.000000
E 49 137 294.000000
E 50 187 194.000000
E 51 88 300.000000
E 51 160 301.000000
E 51 231 194.000000
E 51 310 191.000000
E 51 558 192.000000
E 51 591 205.000000
E 52 66 293.000000
E 52 588 203.000000
E 52 623 201.000000
E 52 636 208.000000
E 53 74 309.000000
E 53 419 197.000000
E 53 476 196.000000
E 54 335 205.000000
E 54 349 195.000000
E 54 397 195.000000
E 54 468 204.000000
E 54 485 199.000000
E 55 84 297.000000
E 55 585 201.000000
E 56 172 207.000000
E 56 246 200.000000
E 57 109 298.000000
E 57 375 191.000000
E 57 426 195.000000
E 57 628 199.000000
E 59 178 197.000000
E 60 173 205.000000
E 61 247 198.000000
E 61 368 196.000000
E 62 332 206.000000
E 62 426 199.000000
E 62 617 198.000000
E 63 342 197.000000
E 63 418 193.000000
E 64 178 201.000000
E 64 451 197.000000
E 65 176 202.000000
E 65 343 200.000000
E 66 306 201.000000
E 67 425 197.000000
E 68 412 204.000000
E 69 132 302.000000
E 69 175 195.000000
E 69 324 202.000000
E 69 458 207.000000
E 69 611 213.000000
E 70 84 295.000000
E 70 250 205.000000
E 70 434 206.000000
E 71 85 295.000000
E 71 91 295.000000
E 71 95 298.000000
E 71 268 196.000000
E 71 322 196.000000
E 71 432 195.000000
E 72 123 293.000000
E 72 275 205.000000
E 72 449 202.000000
E 72 454 203.000000
E 73 150 301.000000
E 73 524 196.000000
E 74 91 303.000000
E 74 255 204.000000
E 74 415 202.000000
E 74 489 199.000000
E 75 585 201.000000
E 76 246 203.000000
E 78 102 300.000000
E 78 217 195.000000
E 78 594 200.000000
E 79 128 302.000000
E 79 364 201.000000
E 79 481 196.000000
E 79 546 195.000000
E 79 629 202.000000
E 80 144 296.000000
E 80 368 191.000000
E 81 326 194.000000
E 81 402 200.000000
E 82 111 298.000000
E 82 267 186.000000
E 82 386 203.000000
E 83 121 287.000000
E 83 180 193.000000
E 85 429 204.000000
E 86 244 187.000000
E 86 536 199.000000
E 87 323 206.000000
E 87 476 200.000000
E 89 203 202.000000
E 89 237 199.000000
E 89 310 194.000000
E 89 340 189.000000
E 89 354 198.000000
E 89 627 203.000000
E 90 102 297.000000
E 90 374 199.000000
E 90 502 191.000000
E 91 219 196.000000
E 91 261 197.000000
E 91 310 195.000000
E 91 349 195.000000
E 91 459 188.000000
E 91 587 200.000000
E 92 250 201.000000
E 92 288 205.000000
E 93 98 298.000000
E 93 603 202.000000
E 94 247 197.000000
E 94 541 194.000000
E 94 580 203.000000
E 94 594 192.000000
E 96 136 298.000000
E 96 239 202.000000
E 97 218 204.000000
E 97 352 198.000000
E 97 460 196.000000
E 98 125 309.000000
E 98 445 205.000000
E 98 527 199.000000
E 98 590 196.000000
E 99 280 199.000000
E 99 326 200.000000
E 99 630 198.000000
E 100 223 206.000000
E 100 562 195.000000
E 101 469 195.000000
E 101 564 204.000000
E 102 251 200.000000
E 103 394 202.000000
E 103 450 203.000000
E 103 558 196.000000
E 104 320 205.000000
E 104 624 199.000000
E 105 247 207.000000
E 105 342 204.000000
E 106 325 204.000000
E 106 432 203.000000
E 106 522 202.000000
E 106 601 193.000000
E 107 365 194.000000
E 107 502 205.000000
E 107 590 200.000000
E 108 305 193.000000
E 108 336 196.000000
E 108 535 195.000000
E 109 184 207.000000
E 109 443 199.000000
E 109 455 198.000000
E 109 465 194.000000
E 109 624 208.000000
E 110 271 196.000000
E 110 551 199.000000
E 111 137 297.000000
E 111 162 208.000000
E 112 131 297.000000
E 112 206 207.000000
E 112 551 204.000000
E 113 624 198.000000
E 114 183 195.000000
E 114 358 198.000000
E 114 548 204.000000
E 115 590 198.000000
E 116 128 301.000000
E 116 226 203.000000
E 117 197 197.000000
E 117 258 195.000000
E 117 263 191.000000
E 117 308 193.000000
E 117 427 202.000000
E 118 229 200.000000
E 119 166 209.000000
E 119 464 202.000000
E 119 466 196.000000
E 120 254 202.000000
E 120 423 200.000000
E 121 574 199.000000
E 122 261 200.000000
E 123 511 195.000000
E 123 543 198.000000
E 124 146 302.000000
E 124 199 191.000000
E 125 218 207.000000
E 125 386 196.000000
E 125 601 208.000000
E 126 245 201.000000
E 126 505 187.000000
E 127 271 194.000000
E 127 280 207.000000
E 127 319 207.000000
E 127 492 207.000000
E 129 193 203.000000
E 129 448 198.000000
E 129 463 206.000000
E 129 584 206.000000
E 130 224 204.000000
E 130 348 199.000000
E 130 618 195.000000
E 131 134 300.000000
E 131 179 203.000000
E 131 462 192.000000
E 132 477 197.000000
E 132 569 203.000000
E 133 570 201.000000
E 134 238 202.000000
E 136 359 205.000000
E 136 574 198.000000
E 137 194 201.000000
E 137 238 199.000000
E 137 327 195.000000
E 137 363 203.000000
E 138 400 192.000000
E 139 319 201.000000
E 139 482 210.000000
E 140 520 201.000000
E 140 587 211.000000
E 141 579 197.000000
E 142 168 199.000000
E 142 250 204.000000
E 143 330 195.000000
E 144 146 303.000000
E 144 245 199.000000
E 145 161 201.000000
E 145 208 200.000000
E 145 267 198.000000
E 145 307 199.000000
E 145 460 201.000000
E 145 544 196.000000
E 146 242 195.000000
E 147 395 206.000000
E 148 474 201.000000
E 149 256 202.000000
E 150 215 193.000000
E 151 503 198.000000
E 151 536 205.000000
E 152 173 195.000000
E 152 429 199.000000
E 153 216 201.000000
E 153 302 198.000000
E 154 189 195.000000
E 154 197 212.000000
E 154 292 197.000000
E 154 596 198.000000
E 155 194 197.000000
E 156 344 202.000000
E 156 543 199.000000
E 157 370 202.000000
E 158 324 204.000000
E 158 448 198.000000
E 159 520 196.000000
E 160 374 188.000000
E 162 261 97.000000
E 162 330 107.000000
E 162 552 101.000000
E 163 237 102.000000
E 163 503 105.000000
E 163 564 105.000000
E 163 588 97.000000
E 164 228 99.000000
E 164 256 107.000000
E 164 331 101.000000
E 164 436 98.000000
E 164 528 99.000000
E 164 640 99.000000
E 165 246 109.000000
E 166 481 102.000000
E 166 517 96.000000
E 166 588 99.000000
E 166 637 93.000000
E 167 469 95.000000
E 167 472 90.000000
E 168 184 99.000000
E 168 279 95.000000
E 168 546 104.000000
E 169 174 99.000000
E 169 379 105.000000
E 170 244 98.000000
E 170 455 96.000000
E 170 503 109.000000
E 170 514 94.000000
E 171 178 106.000000
E 171 423 99.000000
E 171 467 101.000000
E 172 258 95.000000
E 172 564 96.000000
E 172 617 92.000000
E 173 409 102.000000
E 174 190 97.000000
E 174 242 87.000000
E 174 343 88.000000
E 174 383 99.000000
E 174 417 103.000000
E 175 403 100.000000
E 175 452 97.000000
E 176 199 105.000000
E 176 339 101.000000
E 177 398 99.000000
E 177 418 104.000000
E 177 454 100.000000
E 177 637 102.000000
E 178 187 103.000000
E 178 387 109.000000
E 178 452 96.000000
E 178 460 104.000000
E 179 272 100.000000
E 179 473 94.000000
E 179 514 101.000000
E 179 570 101.000000
E 180 375 102.000000
E 180 484 99.000000
E 182 265 104.000000
E 182 275 106.000000
E 182 364 100.000000
E 182 518 105.000000
E 182 538 97.000000
E 184 247 97.000000
E 184 321 99.000000
E 184 337 96.000000
E 184 398 96.000000
E 184 424 105.000000
E 184 494 100.000000
E 184 500 97.000000
E 184 534 101.000000
E 186 590 103.000000
E 186 604 94.000000
E 187 486 106.000000
E 188 261 100.000000
E 188 599 105.000000
E 189 260 110.000000
E 189 309 97.000000
E 189 328 110.000000
E 189 531 101.000000
E 189 585 96.000000
E 190 453 100.000000
E 191 193 96.000000
E 191 476 103.000000
E 191 609 100.000000
E 192 226 99.000000
E 192 274 94.000000
E 193 575 101.000000
E 194 290 106.000000
E 194 309 103.000000
E 194 501 99.000000
E 194 565 96.000000
E 195 395 93.000000
E 195 585 102.000000
E 196 326 97.000000
E 196 530 105.000000
E 196 600 97.000000
E 196 623 108.000000
E 197 226 98.000000
E 197 344 110.000000
E 197 358 98.000000
E 197 389 94.000000
E 198 280 101.000000
E 198 540 107.000000
E 199 349 97.000000
E 199 507 100.000000
E 200 421 97.000000
E 201 277 93.000000
E 201 345 107.000000
E 203 614 88.000000
E 204 583 96.000000
E 205 442 97.000000
E 205 449 91.000000
E 206 267 97.000000
E 206 289 95.000000
E 207 298 101.000000
E 207 567 96.000000
E 208 290 97.000000
E 209 412 97.000000
E 209 439 99.000000
E 209 457 98.000000
E 210 224 102.000000
E 210 500 100.000000
E 210 590 102.000000
E 211 595 100.000000
E 211 612 111.000000
E 212 484 101.000000
E 213 333 96.000000
E 213 363 109.000000
E 213 410 104.000000
E 214 321 92.000000
E 215 227 98.000000
E 215 520 82.000000
E 215 598 103.000000
E 215 604 99.000000
E 216 498 102.000000
E 216 639 107.000000
E 217 408 100.000000
E 217 469 98.000000
E 218 566 98.000000
E 219 306 96.000000
E 220 221 97.000000
E 220 450 105.000000
E 221 380 98.000000
E 221 520 98.000000
E 222 236 102.000000
E 222 257 97.000000
E 222 420 103.000000
E 222 450 103.000000
E 223 492 104.000000
E 224 349 115.000000
E 225 281 89.000000
E 226 290 102.000000
E 226 523 99.000000
E 226 586 97.000000
E 227 371 97.000000
E 228 278 91.000000
E 228 494 102.000000
E 229 573 95.000000
E 229 574 105.000000
E 230 310 106.000000
E 230 311 105.000000
E 230 437 94.000000
E 230 526 103.000000
E 230 558 97.000000
E 230 594 103.000000
E 231 269 93.000000
E 231 431 102.000000
E 232 602 102.000000
E 233 250 102.000000
E 233 403 99.000000
E 234 266 105.000000
E 235 614 95.000000
E 236 270 100.000000
E 236 522 96.000000
E 238 372 98.000000
E 239 566 101.000000
E 239 595 106.000000
E 240 489 107.000000
E 240 566 97.000000
E 241 330 97.000000
E 242 291 91.000000
E 242 395 104.000000
E 243 261 103.000000
E 243 305 104.000000
E 243 318 104.000000
E 243 326 106.000000
E 243 424 89.000000
E 243 592 97.000000
E 244 435 99.000000
E 244 485 103.000000
E 244 492 100.000000
E 245 396 98.000000
E 247 628 100.000000
E 248 491 103.000000
E 248 575 88.000000
E 248 589 110.000000
E 249 288 96.000000
E 249 366 96.000000
E 250 391 104.000000
E 250 500 107.000000
E 251 415 107.000000
E 252 291 95.000000
E 252 344 100.000000
E 252 438 102.000000
E 252 456 95.000000
E 252 502 101.000000
E 253 522 95.000000
E 254 286 106.000000
E 254 471 99.000000
E 255 392 103.000000
E 255 543 92.000000
E 258 351 103.000000
E 259 261 101.000000
E 259 496 98.000000
E 259 547 103.000000
E 260 581 101.000000
E 261 343 96.000000
E 261 373 100.000000
E 261 421 96.000000
E 261 634 104.000000
E 262 549 103.000000
E 262 571 102.000000
E 263 605 100.000000
E 264 490 103.000000
E 264 602 99.000000
E 266 324 108.000000
E 266 443 106.000000
E 266 499 95.000000
E 266 621 99.000000
E 268 293 104.000000
E 268 575 93.000000
E 269 377 109.000000
E 269 526 97.000000
E 271 418 101.000000
E 272 292 101.000000
E 272 612 97.000000
E 273 634 98.000000
E 274 342 96.000000
E 275 413 95.000000
E 276 307 99.000000
E 276 360 99.000000
E 277 397 93.000000
E 277 446 101.000000
E 277 455 99.000000
E 277 600 93.000000
E 278 390 108.000000
E 279 510 100.000000
E 279 597 92.000000
E 280 621 114.000000
E 281 499 106.000000
E 281 512 101.000000
E 281 618 93.000000
E 282 363 91.000000
E 282 604 101.000000
E 283 307 99.000000
E 283 361 95.000000
E 283 397 88.000000
E 284 365 98.000000
E 285 461 95.000000
E 286 470 100.000000
E 286 478 94.000000
E 286 492 99.000000
E 286 515 97.000000
E 286 551 101.000000
E 287 474 100.000000
E 288 316 97.000000
E 288 381 103.000000
E 288 524 103.000000
E 290 296 94.000000
E 290 446 95.000000
E 290 460 104.000000
E 291 396 104.000000
E 291 451 88.000000
E 291 463 102.000000
E 291 513 109.000000
E 291 583 94.000000
E 292 345 93.000000
E 292 432 99.000000
E 292 452 108.000000
E 292 462 106.000000
E 292 558 99.000000
E 293 626 97.000000
E 294 456 107.000000
E 294 474 95.000000
E 294 585 98.000000
E 295 298 96.000000
E 295 317 95.000000
E 295 370 103.000000
E 296 332 94.000000
E 296 377 103.000000
E 297 579 99.000000
E 298 388 99.000000
E 299 395 98.000000
E 300 382 96.000000
E 300 627 103.000000
E 301 536 106.000000
E 301 541 104.000000
E 302 382 98.000000
E 302 427 102.000000
E 303 331 109.000000
E 303 365 96.000000
E 304 451 95.000000
E 304 529 105.000000
E 304 533 109.000000
E 304 638 106.000000
E 307 494 97.000000
E 307 520 103.000000
E 308 315 87.000000
E 308 372 96.000000
E 308 577 105.000000
E 308 606 100.000000
E 309 534 103.000000
E 309 611 100.000000
E 310 352 101.000000
E 311 367 90.000000
E 311 563 91.000000
E 311 623 102.000000
E 312 415 105.000000
E 312 575 96.000000
E 313 359 99.000000
E 313 545 102.000000
E 314 423 97.000000
E 315 398 95.000000
E 316 374 95.000000
E 317 507 93.000000
E 318 561 101.000000
E 319 362 98.000000
E 319 496 88.000000
E 319 555 98.000000
E 319 596 102.000000
E 320 366 99.000000
E 320 379 103.000000
E 320 462 97.000000
E 321 478 103.000000
E 322 401 101.000000
E 323 446 91.000000
E 323 483 101.000000
E 323 531 92.000000
E 323 615 109.000000
E 325 408 98.000000
E 325 440 112.000000
E 327 447 96.000000
E 327 469 102.000000
E 327 585 99.000000
E 327 596 93.000000
E 329 504 95.000000
E 331 521 98.000000
E 331 551 97.000000
E 333 591 98.000000
E 334 349 95.000000
E 335 503 103.000000
E 335 635 99.000000
E 337 457 99.000000
E 337 502 98.000000
E 338 525 104.000000
E 338 589 95.000000
E 339 373 109.000000
E 339 420 99.000000
E 339 484 91.000000
E 340 370 91.000000
E 340 558 106.000000
E 340 623 100.000000
E 341 352 106.000000
E 341 416 106.000000
E 342 424 98.000000
E 342 568 100.000000
E 342 616 98.000000
E 343 572 109.000000
E 344 561 102.000000
E 346 409 98.000000
E 347 437 98.000000
E 348 503 106.000000
E 349 630 101.000000
E 350 571 105.000000
E 350 624 102.000000
E 351 445 107.000000
E 351 451 96.000000
E 352 417 88.000000
E 352 560 106.000000
E 353 595 90.000000
E 353 614 98.000000
E 354 411 96.000000
E 354 486 103.000000
E 355 624 104.000000
E 356 430 103.000000
E 357 405 95.000000
E 357 454 106.000000
E 359 393 94.000000
E 359 562 99.000000
E 361 583 97.000000
E 361 639 95.000000
E 362 553 96.000000
E 363 389 93.000000
E 363 451 98.000000
E 363 571 98.000000
E 364 614 95.000000
E 365 474 101.000000
E 365 481 101.000000
E 365 497 106.000000
E 366 439 93.000000
E 368 397 92.000000
E 368 580 104.000000
E 368 633 100.000000
E 369 407 103.000000
E 369 544 99.000000
E 370 395 98.000000
E 371 501 103.000000
E 371 541 107.000000
E 374 556 101.000000
E 375 393 101.000000
E 375 443 101.000000
E 376 461 97.000000
E 376 489 104.000000
E 377 591 105.000000
E 378 417 99.000000
E 378 442 96.000000
E 378 448 103.000000
E 378 467 90.000000
E 379 623 104.000000
E 381 636 93.000000
E 382 547 93.000000
E 382 558 99.000000
E 384 578 97.000000
E 385 410 99.000000
E 385 604 86.000000
E 386 623 90.000000
E 387 535 109.000000
E 387 613 104.000000
E 388 481 95.000000
E 388 542 93.000000
E 388 551 103.000000
E 389 397 106.000000
E 389 591 93.000000
E 390 459 102.000000
E 392 519 100.000000
E 392 558 95.000000
E 394 400 104.000000
E 394 422 97.000000
E 395 590 98.000000
E 396 493 109.000000
E 396 539 96.000000
E 396 583 104.000000
E 396 625 90.000000
E 397 504 99.000000
E 397 557 103.000000
E 398 405 104.000000
E 398 428 94.000000
E 398 482 96.000000
E 399 496 99.000000
E 399 525 91.000000
E 399 604 97.000000
E 400 411 96.000000
E 402 532 93.000000
E 403 415 101.000000
E 403 502 102.000000
E 403 618 99.000000
E 406 423 103.000000
E 407 475 98.000000
E 407 593 103.000000
E 409 537 96.000000
E 411 547 101.000000
E 412 413 95.000000
E 412 479 102.000000
E 413 443 100.000000
E 414 429 104.000000
E 414 453 95.000000
E 416 592 112.000000
E 418 535 101.000000
E 421 480 99.000000
E 421 509 93.000000
E 422 440 98.000000
E 422 557 107.000000
E 424 569 100.000000
E 425 455 102.000000
E 425 637 104.000000
E 426 450 97.000000
E 429 557 100.000000
E 429 627 105.000000
E 430 459 94.000000
E 430 536 103.000000
E 431 441 99.000000
E 432 631 95.000000
E 433 498 103.000000
E 436 481 90.000000
E 436 592 88.000000
E 437 603 96.000000
E 438 610 108.000000
E 445 525 100.000000
E 448 489 98.000000
E 450 591 98.000000
E 451 559 91.000000
E 451 589 107.000000
E 454 474 99.000000
E 454 547 105.000000
E 454 618 105.000000
E 456 574 86.000000
E 456 631 94.000000
E 459 610 109.000000
E 460 487 101.000000
E 462 521 106.000000
E 463 507 96.000000
E 463 606 106.000000
E 465 509 94.000000
E 468 480 95.000000
E 469 520 103.000000
E 472 536 101.000000
E 478 620 101.000000
E 479 556 94.000000
E 480 592 100.000000
E 481 537 103.000000
E 481 572 102.000000
E 483 493 98.000000
E 490 544 103.000000
E 494 498 98.000000
E 495 579 97.000000
E 497 609 100.000000
E 498 557 109.000000
E 501 541 90.000000
E 503 550 105.000000
E 503 617 100.000000
E 505 541 102.000000
E 506 547 94.000000
E 507 597 93.000000
E 509 515 97.000000
E 510 532 94.000000
E 511 622 105.000000
E 513 619 108.000000
E 514 586 94.000000
E 517 523 105.000000
E 517 533 96.000000
E 520 608 99.000000
E 522 624 97.000000
E 523 532 100.000000
E 529 558 97.000000
E 530 627 94.000000
E 532 551 103.000000
E 532 581 93.000000
E 533 545 98.000000
E 533 570 99.000000
E 533 594 106.000000
E 536 563 101.000000
E 537 541 93.000000
E 537 624 104.000000
E 539 541 96.000000
E 544 618 103.000000
E 545 637 103.000000
E 554 621 100.000000
E 557 572 91.000000
E 558 624 103.000000
E 561 587 93.000000
E 568 585 102.000000
E 572 576 104.000000
E 574 618 108.000000
E 576 631 103.000000
E 578 591 93.000000
E 579 623 105.000000
E 582 612 98.000000
E 583 626 103.000000
E 583 635 99.000000
E 588 632 103.000000
E 598 638 100.000000
E 604 621 99.000000
E 609 632 103.000000
E 614 630 99.000000
E 619 622 98.000000
END

SECTION Terminals
Terminals 160
TP 1 220.000000
TP 2 32.000000
TP 3 848.000000
TP 4 756.000000
TP 5 924.000000
TP 6 1052.000000
TP 7 448.000000
TP 8 20.000000
TP 9 1188.000000
TP 10 1176.000000
TP 11 528.000000
TP 12 612.000000
TP 13 740.000000
TP 14 772.000000
TP 15 1228.000000
TP 16 592.000000
TP 17 640.000000
TP 18 1012.000000
TP 19 168.000000
TP 20 956.000000
TP 21 844.000000
TP 22 276.000000
TP 23 856.000000
TP 24 940.000000
TP 25 928.000000
TP 26 524.000000
TP 27 616.000000
TP 28 1044.000000
TP 29 1028.000000
TP 30 1200.000000
TP 31 1208.000000
TP 32 868.000000
TP 33 528.000000
TP 34 136.000000
TP 35 316.000000
TP 36 648.000000
TP 37 916.000000
TP 38 1076.000000
TP 39 748.000000
TP 40 584.000000
TP 41 1216.000000
TP 42 628.000000
TP 43 460.000000
TP 44 904.000000
TP 45 1056.000000
TP 46 992.000000
TP 47 180.000000
TP 48 368.000000
TP 49 1160.000000
TP 50 920.000000
TP 51 896.000000
TP 52 12.000000
TP 53 668.000000
TP 54 400.000000
TP 55 1204.000000
TP 56 900.000000
TP 57 452.000000
TP 58 160.000000
TP 59 220.000000
TP 60 1216.000000
TP 61 1124.000000
TP 62 984.000000
TP 63 904.000000
TP 64 1128.000000
TP 65 1164.000000
TP 66 776.000000
TP 67 300.000000
TP 68 1228.000000
TP 69 1044.000000
TP 70 260.000000
TP 71 280.000000
TP 72 232.000000
TP 73 176.000000
TP 74 708.000000
TP 75 88.000000
TP 76 832.000000
TP 77 368.000000
TP 78 364.000000
TP 79 960.000000
TP 80 364.000000
TP 81 144.000000
TP 82 312.000000
TP 83 32.000000
TP 84 880.000000
TP 85 1156.000000
TP 86 780.000000
TP 87 484.000000
TP 88 180.000000
TP 89 708.000000
TP 90 88.000000
TP 91 1136.000000
TP 92 932.000000
TP 93 896.000000
TP 94 868.000000
TP 95 504.000000
TP 96 1032.000000
TP 97 1168.000000
TP 98 252.000000
TP 99 900.000000
TP 100 580.000000
TP 101 420.000000
TP 102 1168.000000
TP 103 520.000000
TP 104 504.000000
TP 105 1136.000000
TP 106 360.000000
TP 107 28.000000
TP 108 1084.000000
TP 109 844.000000
TP 110 1024.000000
TP 111 160.000000
TP 112 84.000000
TP 113 1008.000000
TP 114 668.000000
TP 115 684.000000
TP 116 116.000000
TP 117 520.000000
TP 118 492.000000
TP 119 156.000000
TP 120 612.000000
TP 121 772.000000
TP 122 996.000000
TP 123 976.000000
TP 124 868.000000
TP 125 620.000000
TP 126 292.000000
TP 127 188.000000
TP 128 116.000000
TP 129 896.000000
TP 130 1196.000000
TP 131 1188.000000
TP 132 996.000000
TP 133 20.000000
TP 134 300.000000
TP 135 536.000000
TP 136 716.000000
TP 137 192.000000
TP 138 280.000000
TP 139 1112.000000
TP 140 248.000000
TP 141 612.000000
TP 142 340.000000
TP 143 704.000000
TP 144 848.000000
TP 145 1160.000000
TP 146 1196.000000
TP 147 840.000000
TP 148 764.000000
TP 149 308.000000
TP 150 796.000000
TP 151 980.000000
TP 152 452.000000
TP 153 544.000000
TP 154 444.000000
TP 155 140.000000
TP 156 1040.000000
TP 157 672.000000
TP 158 1176.000000
TP 159 976.000000
TP 160 908.000000
END

EOF
